unsat
(:max-memory         18.43
 :memory             18.33
 :nlsat-arith-var    4
 :nlsat-atoms        9
 :nlsat-bool-var     1
 :nlsat-clauses      9
 :nlsat-conflicts    2
 :nlsat-propagations 5
 :nlsat-stages       2
 :num-allocs         50146
 :rlimit-count       1101
 :time               0.00
 :total-time         0.01)
